FourierSAT_Github_AIJ/benchmarks/MAXSAT_benchmarks/crafted/3/bipartite/maxcut-140-630-0.7/maxcut-140-630-0.7-10.cnf
c strEdges: 189  randomEdges: 441 
c degrees:  2  3 
c girth: 10 max: 8.032766  
c Hgirth mixed MAXCUT instance
c generated from an undirected graph
c to solve unweighted MaxCut
p cnf 140 1260
119 84 0
-119 -84 0
119 80 0
-119 -80 0
134 44 0
-134 -44 0
134 122 0
-134 -122 0
94 124 0
-94 -124 0
94 73 0
-94 -73 0
94 13 0
-94 -13 0
108 3 0
-108 -3 0
108 107 0
-108 -107 0
76 109 0
-76 -109 0
76 46 0
-76 -46 0
76 23 0
-76 -23 0
86 36 0
-86 -36 0
86 80 0
-86 -80 0
86 55 0
-86 -55 0
12 35 0
-12 -35 0
12 49 0
-12 -49 0
12 47 0
-12 -47 0
27 79 0
-27 -79 0
27 73 0
-27 -73 0
60 5 0
-60 -5 0
60 31 0
-60 -31 0
60 121 0
-60 -121 0
93 77 0
-93 -77 0
93 84 0
-93 -84 0
93 57 0
-93 -57 0
91 98 0
-91 -98 0
91 102 0
-91 -102 0
91 22 0
-91 -22 0
51 121 0
-51 -121 0
51 25 0
-51 -25 0
6 73 0
-6 -73 0
6 113 0
-6 -113 0
131 102 0
-131 -102 0
131 126 0
-131 -126 0
131 115 0
-131 -115 0
34 74 0
-34 -74 0
34 84 0
-34 -84 0
34 113 0
-34 -113 0
96 10 0
-96 -10 0
96 40 0
-96 -40 0
16 95 0
-16 -95 0
16 126 0
-16 -126 0
16 75 0
-16 -75 0
100 101 0
-100 -101 0
100 43 0
-100 -43 0
100 9 0
-100 -9 0
118 115 0
-118 -115 0
118 10 0
-118 -10 0
118 67 0
-118 -67 0
21 78 0
-21 -78 0
21 46 0
-21 -46 0
21 127 0
-21 -127 0
99 135 0
-99 -135 0
99 69 0
-99 -69 0
99 79 0
-99 -79 0
15 72 0
-15 -72 0
15 79 0
-15 -79 0
15 25 0
-15 -25 0
87 138 0
-87 -138 0
87 88 0
-87 -88 0
11 14 0
-11 -14 0
11 140 0
-11 -140 0
11 40 0
-11 -40 0
110 90 0
-110 -90 0
110 9 0
-110 -9 0
116 128 0
-116 -128 0
116 98 0
-116 -98 0
116 44 0
-116 -44 0
64 25 0
-64 -25 0
64 67 0
-64 -67 0
64 49 0
-64 -49 0
33 103 0
-33 -103 0
33 36 0
-33 -36 0
1 50 0
-1 -50 0
1 123 0
-1 -123 0
1 135 0
-1 -135 0
42 37 0
-42 -37 0
42 52 0
-42 -52 0
42 81 0
-42 -81 0
139 19 0
-139 -19 0
139 88 0
-139 -88 0
139 109 0
-139 -109 0
58 122 0
-58 -122 0
58 124 0
-58 -124 0
114 106 0
-114 -106 0
114 123 0
-114 -123 0
114 65 0
-114 -65 0
97 130 0
-97 -130 0
97 121 0
-97 -121 0
97 19 0
-97 -19 0
92 75 0
-92 -75 0
92 5 0
-92 -5 0
92 103 0
-92 -103 0
129 113 0
-129 -113 0
129 109 0
-129 -109 0
129 35 0
-129 -35 0
61 132 0
-61 -132 0
61 106 0
-61 -106 0
61 35 0
-61 -35 0
32 40 0
-32 -40 0
32 38 0
-32 -38 0
32 36 0
-32 -36 0
66 69 0
-66 -69 0
66 140 0
-66 -140 0
125 26 0
-125 -26 0
125 3 0
-125 -3 0
125 135 0
-125 -135 0
24 47 0
-24 -47 0
24 138 0
-24 -138 0
24 122 0
-24 -122 0
39 107 0
-39 -107 0
39 127 0
-39 -127 0
39 104 0
-39 -104 0
2 65 0
-2 -65 0
2 37 0
-2 -37 0
2 29 0
-2 -29 0
20 136 0
-20 -136 0
20 75 0
-20 -75 0
70 123 0
-70 -123 0
70 5 0
-70 -5 0
62 52 0
-62 -52 0
62 133 0
-62 -133 0
62 13 0
-62 -13 0
53 46 0
-53 -46 0
53 102 0
-53 -102 0
48 57 0
-48 -57 0
48 115 0
-48 -115 0
48 90 0
-48 -90 0
59 18 0
-59 -18 0
59 65 0
-59 -65 0
59 44 0
-59 -44 0
17 22 0
-17 -22 0
17 130 0
-17 -130 0
71 126 0
-71 -126 0
71 3 0
-71 -3 0
45 104 0
-45 -104 0
45 43 0
-45 -43 0
45 133 0
-45 -133 0
56 55 0
-56 -55 0
56 19 0
-56 -19 0
56 18 0
-56 -18 0
105 127 0
-105 -127 0
105 124 0
-105 -124 0
89 43 0
-89 -43 0
89 95 0
-89 -95 0
89 72 0
-89 -72 0
7 67 0
-7 -67 0
7 68 0
-7 -68 0
7 136 0
-7 -136 0
83 38 0
-83 -38 0
83 72 0
-83 -72 0
83 128 0
-83 -128 0
137 80 0
-137 -80 0
137 4 0
-137 -4 0
137 26 0
-137 -26 0
85 88 0
-85 -88 0
85 50 0
-85 -50 0
85 10 0
-85 -10 0
82 68 0
-82 -68 0
82 55 0
-82 -55 0
82 104 0
-82 -104 0
8 13 0
-8 -13 0
8 103 0
-8 -103 0
41 23 0
-41 -23 0
41 69 0
-41 -69 0
41 68 0
-41 -68 0
28 140 0
-28 -140 0
28 29 0
-28 -29 0
117 29 0
-117 -29 0
117 74 0
-117 -74 0
117 136 0
-117 -136 0
54 133 0
-54 -133 0
54 132 0
-54 -132 0
54 22 0
-54 -22 0
111 49 0
-111 -49 0
111 77 0
-111 -77 0
111 78 0
-111 -78 0
63 31 0
-63 -31 0
63 81 0
-63 -81 0
63 107 0
-63 -107 0
30 81 0
-30 -81 0
30 57 0
-30 -57 0
120 9 0
-120 -9 0
120 130 0
-120 -130 0
120 14 0
-120 -14 0
112 4 0
-112 -4 0
112 138 0
-112 -138 0
112 101 0
-112 -101 0
111 101 0
-111 -101 0
73 47 0
-73 -47 0
60 23 0
-60 -23 0
57 140 0
-57 -140 0
102 52 0
-102 -52 0
86 67 0
-86 -67 0
124 4 0
-124 -4 0
62 44 0
-62 -44 0
41 29 0
-41 -29 0
15 127 0
-15 -127 0
70 37 0
-70 -37 0
17 101 0
-17 -101 0
2 78 0
-2 -78 0
119 68 0
-119 -68 0
83 130 0
-83 -130 0
91 3 0
-91 -3 0
35 75 0
-35 -75 0
102 9 0
-102 -9 0
108 67 0
-108 -67 0
96 137 0
-96 -137 0
129 52 0
-129 -52 0
93 37 0
-93 -37 0
85 115 0
-85 -115 0
30 13 0
-30 -13 0
5 46 0
-5 -46 0
86 44 0
-86 -44 0
56 68 0
-56 -68 0
111 140 0
-111 -140 0
86 91 0
-86 -91 0
119 49 0
-119 -49 0
66 23 0
-66 -23 0
16 22 0
-16 -22 0
91 13 0
-91 -13 0
53 105 0
-53 -105 0
66 90 0
-66 -90 0
132 68 0
-132 -68 0
42 66 0
-42 -66 0
93 130 0
-93 -130 0
28 43 0
-28 -43 0
96 36 0
-96 -36 0
42 124 0
-42 -124 0
21 25 0
-21 -25 0
91 121 0
-91 -121 0
53 126 0
-53 -126 0
64 123 0
-64 -123 0
60 33 0
-60 -33 0
21 82 0
-21 -82 0
27 32 0
-27 -32 0
30 68 0
-30 -68 0
7 113 0
-7 -113 0
73 104 0
-73 -104 0
89 85 0
-89 -85 0
12 97 0
-12 -97 0
115 13 0
-115 -13 0
131 22 0
-131 -22 0
131 41 0
-131 -41 0
87 80 0
-87 -80 0
54 128 0
-54 -128 0
22 55 0
-22 -55 0
120 73 0
-120 -73 0
118 120 0
-118 -120 0
99 13 0
-99 -13 0
57 22 0
-57 -22 0
42 4 0
-42 -4 0
93 34 0
-93 -34 0
18 126 0
-18 -126 0
58 97 0
-58 -97 0
5 69 0
-5 -69 0
125 39 0
-125 -39 0
139 44 0
-139 -44 0
33 72 0
-33 -72 0
125 50 0
-125 -50 0
139 67 0
-139 -67 0
108 54 0
-108 -54 0
56 50 0
-56 -50 0
64 140 0
-64 -140 0
61 25 0
-61 -25 0
34 24 0
-34 -24 0
98 122 0
-98 -122 0
39 138 0
-39 -138 0
27 1 0
-27 -1 0
47 43 0
-47 -43 0
99 112 0
-99 -112 0
53 130 0
-53 -130 0
76 135 0
-76 -135 0
6 84 0
-6 -84 0
105 47 0
-105 -47 0
44 77 0
-44 -77 0
100 80 0
-100 -80 0
51 123 0
-51 -123 0
109 121 0
-109 -121 0
125 57 0
-125 -57 0
58 22 0
-58 -22 0
28 117 0
-28 -117 0
98 102 0
-98 -102 0
41 77 0
-41 -77 0
34 62 0
-34 -62 0
80 23 0
-80 -23 0
128 88 0
-128 -88 0
67 88 0
-67 -88 0
48 103 0
-48 -103 0
132 49 0
-132 -49 0
60 2 0
-60 -2 0
98 123 0
-98 -123 0
70 82 0
-70 -82 0
62 72 0
-62 -72 0
42 61 0
-42 -61 0
97 128 0
-97 -128 0
6 36 0
-6 -36 0
70 35 0
-70 -35 0
135 127 0
-135 -127 0
99 29 0
-99 -29 0
116 68 0
-116 -68 0
97 132 0
-97 -132 0
24 107 0
-24 -107 0
114 78 0
-114 -78 0
3 35 0
-3 -35 0
127 31 0
-127 -31 0
24 4 0
-24 -4 0
39 80 0
-39 -80 0
116 89 0
-116 -89 0
54 19 0
-54 -19 0
94 120 0
-94 -120 0
114 90 0
-114 -90 0
105 29 0
-105 -29 0
24 84 0
-24 -84 0
105 4 0
-105 -4 0
34 30 0
-34 -30 0
6 140 0
-6 -140 0
6 21 0
-6 -21 0
96 133 0
-96 -133 0
42 63 0
-42 -63 0
30 112 0
-30 -112 0
61 127 0
-61 -127 0
83 23 0
-83 -23 0
118 21 0
-118 -21 0
2 101 0
-2 -101 0
61 117 0
-61 -117 0
17 122 0
-17 -122 0
59 41 0
-59 -41 0
79 37 0
-79 -37 0
42 53 0
-42 -53 0
50 122 0
-50 -122 0
90 40 0
-90 -40 0
35 69 0
-35 -69 0
13 29 0
-13 -29 0
61 14 0
-61 -14 0
120 98 0
-120 -98 0
26 123 0
-26 -123 0
34 29 0
-34 -29 0
132 52 0
-132 -52 0
70 46 0
-70 -46 0
111 84 0
-111 -84 0
63 73 0
-63 -73 0
2 36 0
-2 -36 0
128 9 0
-128 -9 0
64 80 0
-64 -80 0
12 120 0
-12 -120 0
11 49 0
-11 -49 0
93 28 0
-93 -28 0
77 122 0
-77 -122 0
20 112 0
-20 -112 0
69 43 0
-69 -43 0
5 126 0
-5 -126 0
7 122 0
-7 -122 0
8 124 0
-8 -124 0
20 3 0
-20 -3 0
17 80 0
-17 -80 0
6 32 0
-6 -32 0
45 109 0
-45 -109 0
40 80 0
-40 -80 0
2 107 0
-2 -107 0
126 140 0
-126 -140 0
110 89 0
-110 -89 0
16 114 0
-16 -114 0
8 44 0
-8 -44 0
72 122 0
-72 -122 0
60 122 0
-60 -122 0
5 47 0
-5 -47 0
33 7 0
-33 -7 0
105 26 0
-105 -26 0
105 65 0
-105 -65 0
91 50 0
-91 -50 0
66 54 0
-66 -54 0
66 52 0
-66 -52 0
28 128 0
-28 -128 0
131 66 0
-131 -66 0
41 140 0
-41 -140 0
105 14 0
-105 -14 0
111 103 0
-111 -103 0
21 136 0
-21 -136 0
39 73 0
-39 -73 0
134 76 0
-134 -76 0
83 82 0
-83 -82 0
136 18 0
-136 -18 0
47 29 0
-47 -29 0
88 31 0
-88 -31 0
87 4 0
-87 -4 0
70 122 0
-70 -122 0
129 23 0
-129 -23 0
58 85 0
-58 -85 0
115 57 0
-115 -57 0
92 36 0
-92 -36 0
129 37 0
-129 -37 0
124 128 0
-124 -128 0
27 46 0
-27 -46 0
6 57 0
-6 -57 0
44 22 0
-44 -22 0
116 26 0
-116 -26 0
91 63 0
-91 -63 0
98 72 0
-98 -72 0
62 57 0
-62 -57 0
15 17 0
-15 -17 0
29 4 0
-29 -4 0
10 104 0
-10 -104 0
34 43 0
-34 -43 0
51 64 0
-51 -64 0
54 115 0
-54 -115 0
60 54 0
-60 -54 0
7 47 0
-7 -47 0
27 85 0
-27 -85 0
17 7 0
-17 -7 0
3 81 0
-3 -81 0
114 43 0
-114 -43 0
58 80 0
-58 -80 0
117 72 0
-117 -72 0
36 130 0
-36 -130 0
89 132 0
-89 -132 0
2 38 0
-2 -38 0
87 32 0
-87 -32 0
7 115 0
-7 -115 0
125 43 0
-125 -43 0
51 32 0
-51 -32 0
127 13 0
-127 -13 0
50 132 0
-50 -132 0
90 37 0
-90 -37 0
58 49 0
-58 -49 0
117 124 0
-117 -124 0
76 50 0
-76 -50 0
70 105 0
-70 -105 0
108 66 0
-108 -66 0
129 75 0
-129 -75 0
71 5 0
-71 -5 0
20 41 0
-20 -41 0
64 44 0
-64 -44 0
11 139 0
-11 -139 0
10 46 0
-10 -46 0
15 71 0
-15 -71 0
129 62 0
-129 -62 0
41 35 0
-41 -35 0
8 127 0
-8 -127 0
76 82 0
-76 -82 0
109 26 0
-109 -26 0
71 77 0
-71 -77 0
15 50 0
-15 -50 0
139 68 0
-139 -68 0
109 68 0
-109 -68 0
137 37 0
-137 -37 0
96 85 0
-96 -85 0
10 115 0
-10 -115 0
19 47 0
-19 -47 0
98 113 0
-98 -113 0
45 29 0
-45 -29 0
118 18 0
-118 -18 0
87 7 0
-87 -7 0
114 35 0
-114 -35 0
98 69 0
-98 -69 0
98 107 0
-98 -107 0
74 126 0
-74 -126 0
2 85 0
-2 -85 0
125 35 0
-125 -35 0
35 115 0
-35 -115 0
139 46 0
-139 -46 0
136 49 0
-136 -49 0
1 77 0
-1 -77 0
48 75 0
-48 -75 0
17 71 0
-17 -71 0
92 48 0
-92 -48 0
94 108 0
-94 -108 0
11 57 0
-11 -57 0
54 14 0
-54 -14 0
92 13 0
-92 -13 0
128 49 0
-128 -49 0
5 23 0
-5 -23 0
34 71 0
-34 -71 0
124 101 0
-124 -101 0
121 81 0
-121 -81 0
6 107 0
-6 -107 0
27 61 0
-27 -61 0
85 128 0
-85 -128 0
130 22 0
-130 -22 0
21 50 0
-21 -50 0
111 69 0
-111 -69 0
47 55 0
-47 -55 0
116 122 0
-116 -122 0
64 37 0
-64 -37 0
30 80 0
-30 -80 0
16 4 0
-16 -4 0
124 121 0
-124 -121 0
8 23 0
-8 -23 0
108 123 0
-108 -123 0
14 107 0
-14 -107 0
101 81 0
-101 -81 0
89 41 0
-89 -41 0
100 56 0
-100 -56 0
62 59 0
-62 -59 0
12 112 0
-12 -112 0
112 73 0
-112 -73 0
64 4 0
-64 -4 0
76 120 0
-76 -120 0
56 82 0
-56 -82 0
33 90 0
-33 -90 0
28 115 0
-28 -115 0
116 41 0
-116 -41 0
77 26 0
-77 -26 0
76 115 0
-76 -115 0
32 14 0
-32 -14 0
115 140 0
-115 -140 0
10 138 0
-10 -138 0
32 109 0
-32 -109 0
91 15 0
-91 -15 0
61 2 0
-61 -2 0
30 44 0
-30 -44 0
17 30 0
-17 -30 0
93 103 0
-93 -103 0
16 31 0
-16 -31 0
64 24 0
-64 -24 0
44 132 0
-44 -132 0
11 92 0
-11 -92 0
124 73 0
-124 -73 0
104 55 0
-104 -55 0
114 68 0
-114 -68 0
109 37 0
-109 -37 0
82 38 0
-82 -38 0
110 111 0
-110 -111 0
87 26 0
-87 -26 0
7 41 0
-7 -41 0
106 126 0
-106 -126 0
107 126 0
-107 -126 0
42 22 0
-42 -22 0
86 113 0
-86 -113 0
117 84 0
-117 -84 0
117 77 0
-117 -77 0
6 53 0
-6 -53 0
52 126 0
-52 -126 0
85 13 0
-85 -13 0
56 126 0
-56 -126 0
17 10 0
-17 -10 0
128 47 0
-128 -47 0
113 47 0
-113 -47 0
33 65 0
-33 -65 0
53 18 0
-53 -18 0
30 22 0
-30 -22 0
6 55 0
-6 -55 0
94 9 0
-94 -9 0
61 18 0
-61 -18 0
66 126 0
-66 -126 0
92 63 0
-92 -63 0
100 90 0
-100 -90 0
56 23 0
-56 -23 0
21 42 0
-21 -42 0
60 8 0
-60 -8 0
39 59 0
-39 -59 0
125 128 0
-125 -128 0
139 22 0
-139 -22 0
112 133 0
-112 -133 0
121 47 0
-121 -47 0
17 120 0
-17 -120 0
39 70 0
-39 -70 0
82 115 0
-82 -115 0
28 127 0
-28 -127 0
109 106 0
-109 -106 0
70 136 0
-70 -136 0
32 107 0
-32 -107 0
63 88 0
-63 -88 0
37 80 0
-37 -80 0
134 3 0
-134 -3 0
45 98 0
-45 -98 0
27 121 0
-27 -121 0
63 36 0
-63 -36 0
78 9 0
-78 -9 0
62 82 0
-62 -82 0
24 30 0
-24 -30 0
96 68 0
-96 -68 0
23 133 0
-23 -133 0
1 78 0
-1 -78 0
115 136 0
-115 -136 0
21 10 0
-21 -10 0
77 23 0
-77 -23 0
12 62 0
-12 -62 0
114 120 0
-114 -120 0
96 37 0
-96 -37 0
32 70 0
-32 -70 0
111 88 0
-111 -88 0
131 81 0
-131 -81 0
30 136 0
-30 -136 0
83 140 0
-83 -140 0
90 4 0
-90 -4 0
99 52 0
-99 -52 0
30 37 0
-30 -37 0
3 135 0
-3 -135 0
99 95 0
-99 -95 0
62 55 0
-62 -55 0
6 2 0
-6 -2 0
56 65 0
-56 -65 0
73 26 0
-73 -26 0
110 54 0
-110 -54 0
7 120 0
-7 -120 0
91 6 0
-91 -6 0
3 73 0
-3 -73 0
61 140 0
-61 -140 0
99 4 0
-99 -4 0
44 74 0
-44 -74 0
27 66 0
-27 -66 0
87 114 0
-87 -114 0
27 116 0
-27 -116 0
71 74 0
-71 -74 0
99 3 0
-99 -3 0
63 104 0
-63 -104 0
35 49 0
-35 -49 0
135 25 0
-135 -25 0
108 52 0
-108 -52 0
91 82 0
-91 -82 0
87 106 0
-87 -106 0
108 105 0
-108 -105 0
36 88 0
-36 -88 0
60 39 0
-60 -39 0
85 72 0
-85 -72 0
3 29 0
-3 -29 0
32 103 0
-32 -103 0
118 65 0
-118 -65 0
33 9 0
-33 -9 0
93 123 0
-93 -123 0
24 73 0
-24 -73 0
14 113 0
-14 -113 0
34 96 0
-34 -96 0
20 115 0
-20 -115 0
33 115 0
-33 -115 0
82 44 0
-82 -44 0
48 3 0
-48 -3 0
63 37 0
-63 -37 0
